409 36 11111111111111111111111111111111111
302 36 11111111111111111111111111111111111
309 36 11111111111111111111111111111111111
Библиотека 36 11111111111111111111111111111111111
312 36 11111111111111111111111111111111111
311 36 11111111111111111111111111111111111
310 36 11111111111111111111111111111111111
404 36 11111111111111111111111111111111111
402 36 11111111111111111111111111111111111
303 36 11111111111111111111111111111111111
313 36 11111111111111111111111111111111111
415 36 11111111111111111111111111111111111
304 36 11111111111111111111111111111111111
209 36 11111111111111111111111111111111111
210 36 11111111111111111111111111111111111
414 36 11111111111111111111111111111111111
412 36 11111111111111111111111111111111111
305 36 11111111111111111111111111111111111
301 36 11111111111111111111111111111111111
403 36 11111111111111111111111111111111111
401 36 11111111111111111111111111111111111
407 36 11111111111111111111111111111111111
214 36 11111111111111111111111111111111111
207 36 11111111111111111111111111111111111
405 36 11111111111111111111111111111111111
Бассейн 36 00000001111111111111111111111111111
Зал1 36 11111111111111111111111111111111111
Зал2 36 11111111111111111111111111111111111
Труд1 36 11111111111111111111111111111111111
Труд2 36 11111111111111111111111111111111111